problems/csplib-prob110/ArmiesOfQueens-models/noch/O2/minion/model_1_2-06-solution000001.solution
language Essence 1.3

letting black be {(1, 1), (1, 2), (1, 3)}
$ Visualisation for black
$ 1 1
$ 1 2
$ 1 3

letting white be {(2, 5), (2, 6), (3, 6)}
$ Visualisation for white
$ 2 5
$ 2 6
$ 3 6

